c ---- [ banner ] ------------------------------------------------------------
c
c KISSAT SAT Solver
c Copyright (c) 2019-2021 Armin Biere JKU Linz
c 
c Version 2.0.1 02cd69626a53e93e09286b1978ccb5d6bec58b8e
c Apple clang version 13.1.6 (clang-1316.0.21.2) -W -Wall -O3 -DNDEBUG
c Thu Mar 31 15:34:51 EDT 2022 Darwin Randals-Macbook-Pro.local 21.2.0 arm64
c
c ---- [ proving ] -----------------------------------------------------------
c
c opened and writing proof to DRAT file:
c
c   chew-30-123457.drat
c
c ---- [ parsing ] -----------------------------------------------------------
c
c opened and reading DIMACS file:
c
c   chew-30-123457.cnf
c
c parsed 'p cnf 84 224' header
c closing input after reading 2741 bytes (3 KB)
c finished parsing after 0.00 seconds
c
c ---- [ options ] -----------------------------------------------------------
c
c --stable=0                       (different from default '1')
c
c ---- [ solving ] -----------------------------------------------------------
c
c  seconds switched rate      trail  variables
c         MB reductions conflicts glue   remaining
c          level restarts redundant irredundant
c
c *  0.00  0 0 0 0  0 0   0   0 0% 0 224 84 99%
c {  0.00  0 0 0 0  0 0   0   0 0% 0 224 84 99%
c -  0.00  0 24 0 1  0 1 302  43 93% 16 224 84 99%
c -  0.01  0 21 0 2  0 1 1303 164 74% 14 224 84 99%
c u  0.01  0 21 0 2  0 1 1309 154 74% 14 224 84 99%
c -  0.02  0 22 0 3  0 1 2719 254 83% 14 224 84 99%
c u  0.02  0 22 0 3  0 1 2724 250 83% 14 224 84 99%
c e  0.02  0 22 0 3  4 1 2809 291 82% 14 216 56 66%
c e  0.02  0 22 0 3  4 1 2809 291 82% 14 216 55 65%
c -  0.03  0 20 0 4  4 1 4454 250 77% 13 216 55 65%
c ^  0.03  0 19 0 4  4 1 5580 802 71% 13 216 55 65%
c -  0.04  0 18 0 5  4 1 6456 406 67% 12 216 55 65%
c -  0.05  0 17 0 6  4 1 8694 599 60% 12 216 55 65%
c -  0.06  0 16 0 7  4 1 11144 885 58% 11 216 55 65%
c ^  0.07  0 16 0 7  4 1 11591 1089 58% 11 216 55 65%
c -  0.08  0 16 0 8  4 1 13791 1395 55% 10 216 55 65%
c -  0.09  0 16 0 9  4 1 16620 1634 54% 10 216 55 65%
c u  0.10  0 15 0 9  4 1 18764 2437 53% 10 216 55 65%
c -  0.11  0 15 0 10  4 1 19620 1577 53% 10 216 55 65%
c ^  0.12  0 15 0 10 16 1 21268 2256 52% 10 216 55 65%
c
c  seconds  switched  rate          trail   variables
c         MB  reductions conflicts      glue    remaining
c          level  restarts   redundant  irredundant
c
c -  0.13  0 15 0 11 16 1 22783 1743 51% 10 216 55 65%
c u  0.13  0 14 0 11 16 1 24226 2102 50% 9 216 55 65%
c v  0.13  0 14 0 11 16 1 24226 2102 50% 9 216 55 65%
c -  0.15  0 14 0 12 16 1 26100 1798 50% 9 216 55 65%
c -  0.17  0 14 0 13 16 1 29565 2330 50% 9 216 55 65%
c -  0.19  0 14 0 14 812 2 33173 2484 49% 9 216 55 65%
c e  0.20  0 14 0 14 1013 2 35018 3094 48% 9 224 53 62%
c ^  0.20  0 14 0 14 1013 2 35018 3094 48% 9 224 53 62%
c -  0.21  0 14 0 15 1178 2 36914 1594 49% 9 224 53 62%
c u  0.22  0 15 0 15 1357 2 37566 1842 49% 9 224 53 62%
c v  0.22  0 15 0 15 1357 2 37566 1839 49% 9 224 53 62%
c -  0.24  0 15 0 16 1615 2 40786 1800 49% 9 224 53 62%
c -  0.26  0 15 0 17 2790 3 44786 1735 49% 9 224 53 62%
c u  0.27  0 15 0 17 3028 3 45601 2083 49% 9 224 53 62%
c -  0.29  0 15 0 18 3983 3 48911 1536 49% 10 224 53 62%
c -  0.31  0 16 0 19 5222 3 53153 1498 49% 10 224 53 62%
c ^  0.31  0 16 0 19 5319 3 53452 1621 49% 10 224 53 62%
c u  0.32  0 16 0 19 5612 3 54504 2074 49% 10 224 53 62%
c v  0.32  0 16 0 19 5612 3 54504 2074 49% 10 224 53 62%
c -  0.34  0 16 0 20 5612 3 57513 1660 49% 10 224 53 62%
c
c  seconds  switched    rate          trail   variables
c         MB  reductions  conflicts       glue    remaining
c          level   restarts    redundant  irredundant
c
c -  0.36  0 15 0 21 5612 3 61987 1817 49% 10 224 53 62%
c u  0.37  0 15 0 21 5612 3 64312 2750 49% 10 224 53 62%
c v  0.37  0 15 0 21 5612 3 64312 2747 49% 10 224 53 62%
c -  0.39  0 15 0 22 5735 3 66570 2086 48% 10 224 53 62%
c -  0.42  0 15 0 23 5735 3 71260 2138 48% 10 224 53 62%
c u  0.44  0 14 0 23 5735 3 75012 3208 48% 9 224 53 62%
c v  0.44  0 14 0 23 5735 3 75012 3207 48% 9 224 53 62%
c -  0.45  0 14 0 24 5735 3 76057 2196 48% 9 224 53 62%
c e  0.45  0 14 0 24 5735 3 76741 2487 48% 9 416 41 48%
c !  0.45  0 14 0 24 5735 3 76741 2487 48% 9 416 41 48%
c -  0.48  0 15 0 25 6410 3 80958 1344 49% 9 416 41 48%
c -  0.51  0 15 0 26 7612 3 85960 1617 50% 10 416 41 48%
c u  0.51  0 15 0 26 7810 3 86635 1855 50% 10 416 41 48%
c v  0.51  0 15 0 26 7810 3 86635 1851 50% 10 416 41 48%
c w  0.52  0 15 0 26 7810 3 86635 1851 50% 10 416 41 48%
c -  0.54  0 15 0 27 9102 3 91061 1562 51% 10 416 41 48%
c -  0.57  0 15 0 28 9522 3 96257 1652 51% 10 416 41 48%
c -  0.60  0 15 0 29 9522 3 101550 1991 52% 10 416 41 48%
c u  0.60  0 15 0 29 9522 3 102095 2118 52% 10 416 41 48%
c v  0.60  0 15 0 29 9522 3 102095 2116 52% 10 416 41 48%
c
c  seconds  switched    rate           trail   variables
c         MB  reductions  conflicts        glue    remaining
c          level   restarts     redundant  irredundant
c
c w  0.60  0 15 0 29 9522 3 102095 2116 52% 10 413 41 48%
c -  0.63  0 15 0 30 10130 3 106935 2456 52% 10 413 41 48%
c -  0.66  0 16 0 31 11078 3 112412 2294 52% 10 413 41 48%
c -  0.70  0 16 0 32 12029 4 117981 2160 53% 10 413 41 48%
c u  0.70  0 16 0 32 12147 4 118691 2472 53% 10 413 41 48%
c v  0.70  0 16 0 32 12147 4 118694 2471 53% 10 413 41 48%
c -  0.74  0 16 0 33 13010 4 123638 2092 53% 10 413 41 48%
c -  0.77  0 16 0 34 13990 4 129382 2094 53% 10 413 41 48%
c -  0.81  0 16 0 35 14999 4 135213 2146 54% 10 413 41 48%
c u  0.81  0 16 0 35 15211 4 136468 2719 54% 10 413 41 48%
c -  0.84  0 17 0 36 16007 4 141129 2147 54% 11 413 41 48%
c -  0.88  0 17 0 37 17039 4 147131 2007 54% 11 413 41 48%
c -  0.91  0 16 0 38 17059 4 153214 2580 54% 11 413 41 48%
c u  0.93  0 16 0 38 17085 4 155440 3468 54% 11 413 41 48%
c -  0.96  0 16 0 39 17764 4 159380 2721 54% 11 413 41 48%
c -  1.00  0 17 0 40 18846 4 165626 2403 54% 11 413 41 48%
c -  1.03  0 17 0 41 19934 4 171953 2380 54% 11 413 41 48%
c u  1.06  0 17 0 41 19993 4 175615 3456 54% 11 413 41 48%
c -  1.08  0 17 0 42 19993 4 178356 2997 54% 11 413 41 48%
c -  1.12  0 16 0 43 19993 4 184836 3186 54% 11 413 41 48%
c
c  seconds  switched     rate           trail   variables
c         MB  reductions   conflicts        glue    remaining
c          level   restarts      redundant  irredundant
c
c -  1.16  0 16 0 44 19993 3 191393 3014 54% 10 413 41 48%
c u  1.20  0 15 0 44 19993 3 197107 3260 54% 10 413 41 48%
c v  1.20  0 15 0 44 19993 3 197111 3258 54% 10 413 41 48%
c -  1.21  0 15 0 45 19993 3 198027 2481 54% 10 413 41 48%
c -  1.25  0 15 0 46 19993 3 204736 2965 54% 10 413 41 48%
c -  1.30  0 15 0 47 19993 3 211519 3419 54% 10 413 41 48%
c -  1.34  0 15 0 48 20036 3 218375 3642 55% 10 413 41 48%
c u  1.35  0 15 0 48 20245 3 219818 3549 55% 10 413 41 48%
c v  1.35  0 15 0 48 20245 3 219824 3548 55% 10 413 41 48%
c -  1.39  0 15 0 49 20340 3 225304 2998 55% 10 413 41 48%
c -  1.44  0 14 0 50 20340 3 232305 3590 55% 10 413 41 48%
c -  1.48  0 14 0 51 20389 3 239376 4383 55% 10 413 41 48%
c u  1.51  0 14 0 51 20721 3 243764 5941 55% 10 413 41 48%
c v  1.51  0 14 0 51 20721 3 243765 5929 55% 10 413 41 48%
c -  1.53  0 14 0 52 20721 3 246518 4545 55% 10 413 41 48%
c -  1.58  0 14 0 53 20721 3 253729 4397 55% 9 413 41 48%
c -  1.63  0 14 0 54 21004 2 261010 4495 55% 9 413 41 48%
c -  1.69  0 14 0 55 22350 3 268358 4300 55% 10 413 41 48%
c u  1.70  0 14 0 55 22445 3 269126 3730 55% 10 413 41 48%
c v  1.70  0 14 0 55 22445 3 269132 3709 55% 10 413 41 48%
c
c  seconds  switched     rate           trail   variables
c         MB  reductions   conflicts        glue    remaining
c          level   restarts      redundant  irredundant
c
c -  1.75  0 14 0 56 22963 3 275775 3417 55% 10 413 41 48%
c -  1.79  0 14 0 57 22963 2 283258 3454 55% 10 413 41 48%
c -  1.85  0 14 0 58 23045 2 290810 3802 55% 9 413 41 48%
c u  1.88  0 14 0 58 23149 2 295598 3865 55% 9 413 41 48%
c v  1.88  0 14 0 58 23149 2 295602 3829 55% 9 413 41 48%
c -  1.91  0 14 0 59 23501 2 298425 3029 55% 9 413 41 48%
c -  1.95  0 13 0 60 23501 2 306106 4150 55% 9 413 41 48%
c -  2.01  0 13 0 61 23501 2 313853 5302 55% 9 413 41 48%
c -  2.06  0 13 0 62 23501 2 321663 5554 55% 9 413 41 48%
c f  2.07  0 13 0 62 23501 2 323290 5952 55% 9 413 41 48%
c u  2.08  0 13 0 62 23501 2 323351 5368 55% 9 413 41 48%
c v  2.08  0 13 0 62 23501 2 323351 5361 55% 9 413 41 48%
c w  2.08  0 13 0 62 23501 2 323351 5361 55% 9 413 41 48%
c 2  2.08  0 13 0 62 23501 2 323351 5361 55% 9 406 41 48%
c -  2.13  0 13 0 63 23552 2 329538 5385 56% 9 406 41 48%
c i  2.17  0 12 0 63 23552 2 336364 6954 56% 9 406 40 47%
c -  2.19  0 12 0 64 23692 2 337475 3904 56% 9 406 40 47%
c -  2.24  0 12 0 65 24007 2 345476 4226 55% 9 406 40 47%
c i  2.25  0 12 0 65 24007 2 346648 4657 55% 8 406 38 45%
c 3  2.29  0 12 0 65 24007 2 352335 3438 55% 8 328 38 45%
c
c  seconds  switched     rate           trail  variables
c         MB  reductions   conflicts       glue    remaining
c          level   restarts      redundant irredundant
c
c u  2.30  0 12 0 65 24007 2 352456 1935 55% 8 328 38 45%
c v  2.30  0 12 0 65 24007 2 352465 1741 55% 8 328 38 45%
c w  2.30  0 12 0 65 24007 2 352465 1741 55% 8 328 38 45%
c -  2.31  0 12 0 66 24007 2 353538 1402 55% 8 327 38 45%
c i  2.33  0 12 0 66 24007 2 356494 2267 55% 8 327 36 42%
c i  2.33  0 12 0 66 24007 2 357567 2490 55% 8 327 35 41%
c i  2.34  0 12 0 66 24007 2 358043 2643 55% 8 327 34 40%
c i  2.34  0 12 0 66 24007 2 358346 2722 55% 8 327 33 39%
c i  2.34  0 12 0 66 24007 2 358430 2746 55% 8 327 32 38%
c i  2.34  0 12 0 66 24007 2 358474 2753 55% 8 327 31 36%
c i  2.34  0 12 0 66 24007 2 358489 2757 55% 8 327 30 35%
c i  2.34  0 12 0 66 24007 2 358494 2760 55% 8 327 29 34%
c i  2.34  0 12 0 66 24007 2 358500 2762 55% 8 327 28 33%
c i  2.34  0 12 0 66 24007 2 358503 2762 55% 8 327 27 32%
c i  2.34  0 12 0 66 24007 2 358504 2762 55% 8 327 26 31%
c }  2.34  0 12 0 66 24007 2 358506 2762 55% 8 327 23 27%
c 0  2.34  0 12 0 66 24007 2 358506 2762 55% 8 327 23 27%
c
c ---- [ result ] ------------------------------------------------------------
c
s UNSATISFIABLE
c
c ---- [ profiling ] ---------------------------------------------------------
c
c           2.22   94.82 %  search
c           2.22   94.82 %  focused
c           0.25   10.54 %  reduce
c           0.12    5.17 %  simplify
c           0.11    4.74 %  probe
c           0.08    3.35 %  vivify
c           0.02    0.72 %  substitute
c           0.01    0.57 %  sweep
c           0.01    0.43 %  eliminate
c           0.00    0.04 %  transitive
c           0.00    0.02 %  ternary
c           0.00    0.02 %  failed
c           0.00    0.02 %  subsume
c           0.00    0.01 %  backbone
c           0.00    0.00 %  parse
c =============================================
c           2.34  100.00 %  total
c
c ---- [ statistics ] --------------------------------------------------------
c
c clauses_learned:                     244187               68 %  conflicts
c conflicts:                           358506           153289.32 per second
c decisions:                           686663                1.92 per conflict
c forward_strengthened:                    20                1 %  strengthened
c kitten_conflicts:                      4314                1.19 per solved
c kitten_decisions:                     78178               21.53 per solved
c kitten_propagations:                 113826               31.35 per solved
c kitten_sat:                            3520               97 %  solved
c kitten_solved:                         3631 
c kitten_ticks:                        759096                6.67 per propagation
c kitten_unknown:                          27                1 %  solved
c kitten_unsat:                            84                2 %  solved
c literals_bumped:                    6217349               25.46 per clause
c literals_deduced:                   3563153               14.59 per clause
c literals_learned:                   2837973               11.62 per clause
c literals_minimized:                       0                0 %  deduced
c literals_minimize_shrunken:           21327                3 %  shrunken
c literals_shrunken:                   725194               20 %  deduced
c propagations:                       1644378           703100    per second
c reductions:                              66             5432    interval
c restarts:                             24007               14.93 interval
c restarts_reused_trails:               14839               62 %  restarts
c strengthened:                          1450                2 %  checks
c subsumption_checks:                   80019 
c subsumed:                            115704              145 %  checks
c sweep:                                   28            12804    interval
c sweep_completed:                          7                4    sweeps
c sweep_equivalences:                       0                0    variables
c sweep_sat:                             3520               99 %  sweep_solved
c sweep_solved:                          3547               98 %  kitten_solved
c sweep_units:                              0                0 %  variables
c sweep_unsat:                              0                0 %  sweep_solved
c sweep_variables:                        257              302 %  variables
c
c ---- [ proof ] -------------------------------------------------------------
c
c proof_added:                         332075               50 %  per line
c proof_bytes:                       29321624               28 MB 
c proof_deleted:                       329191               50 %  per line
c
c ---- [ resources ] ---------------------------------------------------------
c
c maximum-resident-set-size:       7801405440 bytes       7440 MB
c process-time:                             2s               2.34 seconds
c
c ---- [ shutting down ] -----------------------------------------------------
c
c exit 20
-rw-r--r--  1 bryant  staff  29321624 Mar 11 02:57 chew-30-123457.drat
c parsing input formula with 84 variables and 224 clauses
c finished parsing
c detected empty clause; start verification via backward checking
c 224 of 224 clauses in core                            
c 216301 of 332076 lemmas in core using 1602682 resolution steps
c 0 RAT lemmas in core; 222 redundant literals in core lemmas
s VERIFIED
c verification time: 1.732 seconds
